120
150
39
59
68
90
23
30
72
49
59
47
54
96
100
29
31
21
29
53
97
38
90
23
66
39
94
84
26
35
22
39
43
30
96
37
74
31
31
54
77
100
34
42
96
49
86
54
50
24
68
97
64
96
40
90
42
69
54
96
59
81
26
58
58
75
53
88
27
85
22
44
68
61
96
42
100
86
39
34
31
54
90
43
50
79
39
59
40
35
76
58
23
68
25
72
78
52
67
98
68
82
31
52
74
90
42
60
40
39
24
63
96
31
68
82
34
47
54
58
39
53
